c Generated map
c Size: 15 * 15, weights in range: 1 to 10, walls: False, with ratio 0.0
c dim 3 of 4
c
p sp 225 420
c graph contains 225 nodes and 420 arcs
c
a 1 16 2
a 16 1 2
a 1 2 2
a 2 1 2
a 2 17 2
a 17 2 2
a 2 3 6
a 3 2 6
a 3 18 6
a 18 3 6
a 3 4 10
a 4 3 10
a 4 19 4
a 19 4 4
a 4 5 7
a 5 4 7
a 5 20 8
a 20 5 8
a 5 6 8
a 6 5 8
a 6 21 7
a 21 6 7
a 6 7 7
a 7 6 7
a 7 22 1
a 22 7 1
a 7 8 2
a 8 7 2
a 8 23 3
a 23 8 3
a 8 9 2
a 9 8 2
a 9 24 8
a 24 9 8
a 9 10 1
a 10 9 1
a 10 25 8
a 25 10 8
a 10 11 4
a 11 10 4
a 11 26 3
a 26 11 3
a 11 12 3
a 12 11 3
a 12 27 3
a 27 12 3
a 12 13 4
a 13 12 4
a 13 28 7
a 28 13 7
a 13 14 1
a 14 13 1
a 14 29 5
a 29 14 5
a 14 15 5
a 15 14 5
a 15 30 9
a 30 15 9
a 16 31 1
a 31 16 1
a 16 17 9
a 17 16 9
a 17 32 10
a 32 17 10
a 17 18 10
a 18 17 10
a 18 33 9
a 33 18 9
a 18 19 8
a 19 18 8
a 19 34 2
a 34 19 2
a 19 20 4
a 20 19 4
a 20 35 3
a 35 20 3
a 20 21 3
a 21 20 3
a 21 36 10
a 36 21 10
a 21 22 1
a 22 21 1
a 22 37 5
a 37 22 5
a 22 23 9
a 23 22 9
a 23 38 6
a 38 23 6
a 23 24 6
a 24 23 6
a 24 39 4
a 39 24 4
a 24 25 6
a 25 24 6
a 25 40 7
a 40 25 7
a 25 26 4
a 26 25 4
a 26 41 1
a 41 26 1
a 26 27 1
a 27 26 1
a 27 42 2
a 42 27 2
a 27 28 7
a 28 27 7
a 28 43 9
a 43 28 9
a 28 29 10
a 29 28 10
a 29 44 2
a 44 29 2
a 29 30 2
a 30 29 2
a 30 45 10
a 45 30 10
a 31 46 9
a 46 31 9
a 31 32 6
a 32 31 6
a 32 47 9
a 47 32 9
a 32 33 2
a 33 32 2
a 33 48 1
a 48 33 1
a 33 34 3
a 34 33 3
a 34 49 7
a 49 34 7
a 34 35 6
a 35 34 6
a 35 50 1
a 50 35 1
a 35 36 1
a 36 35 1
a 36 51 2
a 51 36 2
a 36 37 9
a 37 36 9
a 37 52 5
a 52 37 5
a 37 38 5
a 38 37 5
a 38 53 9
a 53 38 9
a 38 39 6
a 39 38 6
a 39 54 2
a 54 39 2
a 39 40 5
a 40 39 5
a 40 55 7
a 55 40 7
a 40 41 2
a 41 40 2
a 41 56 8
a 56 41 8
a 41 42 2
a 42 41 2
a 42 57 1
a 57 42 1
a 42 43 8
a 43 42 8
a 43 58 8
a 58 43 8
a 43 44 10
a 44 43 10
a 44 59 6
a 59 44 6
a 44 45 2
a 45 44 2
a 45 60 8
a 60 45 8
a 46 61 6
a 61 46 6
a 46 47 3
a 47 46 3
a 47 62 9
a 62 47 9
a 47 48 7
a 48 47 7
a 48 63 10
a 63 48 10
a 48 49 8
a 49 48 8
a 49 64 9
a 64 49 9
a 49 50 10
a 50 49 10
a 50 65 4
a 65 50 4
a 50 51 4
a 51 50 4
a 51 66 6
a 66 51 6
a 51 52 3
a 52 51 3
a 52 67 1
a 67 52 1
a 52 53 6
a 53 52 6
a 53 68 5
a 68 53 5
a 53 54 3
a 54 53 3
a 54 69 2
a 69 54 2
a 54 55 4
a 55 54 4
a 55 70 5
a 70 55 5
a 55 56 7
a 56 55 7
a 56 71 6
a 71 56 6
a 56 57 5
a 57 56 5
a 57 72 7
a 72 57 7
a 57 58 9
a 58 57 9
a 58 73 1
a 73 58 1
a 58 59 9
a 59 58 9
a 59 74 6
a 74 59 6
a 59 60 3
a 60 59 3
a 60 75 8
a 75 60 8
a 61 76 2
a 76 61 2
a 61 62 4
a 62 61 4
a 62 77 1
a 77 62 1
a 62 63 7
a 63 62 7
a 63 78 5
a 78 63 5
a 63 64 3
a 64 63 3
a 64 79 8
a 79 64 8
a 64 65 8
a 65 64 8
a 65 80 4
a 80 65 4
a 65 66 4
a 66 65 4
a 66 81 6
a 81 66 6
a 66 67 7
a 67 66 7
a 67 82 8
a 82 67 8
a 67 68 10
a 68 67 10
a 68 83 3
a 83 68 3
a 68 69 8
a 69 68 8
a 69 84 10
a 84 69 10
a 69 70 10
a 70 69 10
a 70 85 7
a 85 70 7
a 70 71 3
a 71 70 3
a 71 86 2
a 86 71 2
a 71 72 2
a 72 71 2
a 72 87 9
a 87 72 9
a 72 73 1
a 73 72 1
a 73 88 9
a 88 73 9
a 73 74 10
a 74 73 10
a 74 89 4
a 89 74 4
a 74 75 9
a 75 74 9
a 75 90 2
a 90 75 2
a 76 91 5
a 91 76 5
a 76 77 10
a 77 76 10
a 77 92 6
a 92 77 6
a 77 78 8
a 78 77 8
a 78 93 2
a 93 78 2
a 78 79 8
a 79 78 8
a 79 94 4
a 94 79 4
a 79 80 1
a 80 79 1
a 80 95 9
a 95 80 9
a 80 81 6
a 81 80 6
a 81 96 6
a 96 81 6
a 81 82 3
a 82 81 3
a 82 97 1
a 97 82 1
a 82 83 9
a 83 82 9
a 83 98 10
a 98 83 10
a 83 84 3
a 84 83 3
a 84 99 10
a 99 84 10
a 84 85 6
a 85 84 6
a 85 100 6
a 100 85 6
a 85 86 4
a 86 85 4
a 86 101 8
a 101 86 8
a 86 87 1
a 87 86 1
a 87 102 6
a 102 87 6
a 87 88 1
a 88 87 1
a 88 103 3
a 103 88 3
a 88 89 5
a 89 88 5
a 89 104 9
a 104 89 9
a 89 90 3
a 90 89 3
a 90 105 6
a 105 90 6
a 91 106 4
a 106 91 4
a 91 92 6
a 92 91 6
a 92 107 2
a 107 92 2
a 92 93 9
a 93 92 9
a 93 108 6
a 108 93 6
a 93 94 9
a 94 93 9
a 94 109 4
a 109 94 4
a 94 95 6
a 95 94 6
a 95 110 6
a 110 95 6
a 95 96 7
a 96 95 7
a 96 111 7
a 111 96 7
a 96 97 5
a 97 96 5
a 97 112 5
a 112 97 5
a 97 98 5
a 98 97 5
a 98 113 1
a 113 98 1
a 98 99 7
a 99 98 7
a 99 114 6
a 114 99 6
a 99 100 9
a 100 99 9
a 100 115 3
a 115 100 3
a 100 101 10
a 101 100 10
a 101 116 4
a 116 101 4
a 101 102 7
a 102 101 7
a 102 117 8
a 117 102 8
a 102 103 9
a 103 102 9
a 103 118 8
a 118 103 8
a 103 104 10
a 104 103 10
a 104 119 2
a 119 104 2
a 104 105 9
a 105 104 9
a 105 120 4
a 120 105 4
a 106 121 6
a 121 106 6
a 106 107 6
a 107 106 6
a 107 122 6
a 122 107 6
a 107 108 6
a 108 107 6
a 108 123 5
a 123 108 5
a 108 109 8
a 109 108 8
a 109 124 10
a 124 109 10
a 109 110 9
a 110 109 9
a 110 125 10
a 125 110 10
a 110 111 6
a 111 110 6
a 111 126 7
a 126 111 7
a 111 112 2
a 112 111 2
a 112 127 8
a 127 112 8
a 112 113 3
a 113 112 3
a 113 128 5
a 128 113 5
a 113 114 5
a 114 113 5
a 114 129 9
a 129 114 9
a 114 115 10
a 115 114 10
a 115 130 3
a 130 115 3
a 115 116 4
a 116 115 4
a 116 131 6
a 131 116 6
a 116 117 7
a 117 116 7
a 117 132 7
a 132 117 7
a 117 118 9
a 118 117 9
a 118 133 4
a 133 118 4
a 118 119 4
a 119 118 4
a 119 134 4
a 134 119 4
a 119 120 4
a 120 119 4
a 120 135 7
a 135 120 7
a 121 136 5
a 136 121 5
a 121 122 2
a 122 121 2
a 122 137 5
a 137 122 5
a 122 123 10
a 123 122 10
a 123 138 4
a 138 123 4
a 123 124 1
a 124 123 1
a 124 139 6
a 139 124 6
a 124 125 8
a 125 124 8
a 125 140 5
a 140 125 5
a 125 126 3
a 126 125 3
a 126 141 10
a 141 126 10
a 126 127 7
a 127 126 7
a 127 142 5
a 142 127 5
a 127 128 3
a 128 127 3
a 128 143 5
a 143 128 5
a 128 129 6
a 129 128 6
a 129 144 2
a 144 129 2
a 129 130 7
a 130 129 7
a 130 145 8
a 145 130 8
a 130 131 3
a 131 130 3
a 131 146 6
a 146 131 6
a 131 132 4
a 132 131 4
a 132 147 10
a 147 132 10
a 132 133 1
a 133 132 1
a 133 148 9
a 148 133 9
a 133 134 10
a 134 133 10
a 134 149 9
a 149 134 9
a 134 135 8
a 135 134 8
a 135 150 8
a 150 135 8
a 136 151 3
a 151 136 3
a 136 137 3
a 137 136 3
a 137 152 5
a 152 137 5
a 137 138 3
a 138 137 3
a 138 153 4
a 153 138 4
a 138 139 3
a 139 138 3
a 139 154 4
a 154 139 4
a 139 140 2
a 140 139 2
a 140 155 5
a 155 140 5
a 140 141 8
a 141 140 8
a 141 156 7
a 156 141 7
a 141 142 2
a 142 141 2
a 142 157 4
a 157 142 4
a 142 143 3
a 143 142 3
a 143 158 3
a 158 143 3
a 143 144 10
a 144 143 10
a 144 159 8
a 159 144 8
a 144 145 1
a 145 144 1
a 145 160 9
a 160 145 9
a 145 146 5
a 146 145 5
a 146 161 9
a 161 146 9
a 146 147 5
a 147 146 5
a 147 162 5
a 162 147 5
a 147 148 2
a 148 147 2
a 148 163 10
a 163 148 10
a 148 149 8
a 149 148 8
a 149 164 2
a 164 149 2
a 149 150 8
a 150 149 8
a 150 165 8
a 165 150 8
a 151 166 6
a 166 151 6
a 151 152 1
a 152 151 1
a 152 167 6
a 167 152 6
a 152 153 5
a 153 152 5
a 153 168 1
a 168 153 1
a 153 154 10
a 154 153 10
a 154 169 10
a 169 154 10
a 154 155 4
a 155 154 4
a 155 170 8
a 170 155 8
a 155 156 2
a 156 155 2
a 156 171 1
a 171 156 1
a 156 157 5
a 157 156 5
a 157 172 5
a 172 157 5
a 157 158 2
a 158 157 2
a 158 173 6
a 173 158 6
a 158 159 7
a 159 158 7
a 159 174 8
a 174 159 8
a 159 160 9
a 160 159 9
a 160 175 2
a 175 160 2
a 160 161 4
a 161 160 4
a 161 176 4
a 176 161 4
a 161 162 10
a 162 161 10
a 162 177 5
a 177 162 5
a 162 163 6
a 163 162 6
a 163 178 1
a 178 163 1
a 163 164 6
a 164 163 6
a 164 179 9
a 179 164 9
a 164 165 10
a 165 164 10
a 165 180 10
a 180 165 10
a 166 181 8
a 181 166 8
a 166 167 9
a 167 166 9
a 167 182 5
a 182 167 5
a 167 168 8
a 168 167 8
a 168 183 4
a 183 168 4
a 168 169 5
a 169 168 5
a 169 184 4
a 184 169 4
a 169 170 9
a 170 169 9
a 170 185 6
a 185 170 6
a 170 171 5
a 171 170 5
a 171 186 2
a 186 171 2
a 171 172 6
a 172 171 6
a 172 187 7
a 187 172 7
a 172 173 9
a 173 172 9
a 173 188 3
a 188 173 3
a 173 174 2
a 174 173 2
a 174 189 6
a 189 174 6
a 174 175 2
a 175 174 2
a 175 190 9
a 190 175 9
a 175 176 9
a 176 175 9
a 176 191 2
a 191 176 2
a 176 177 4
a 177 176 4
a 177 192 6
a 192 177 6
a 177 178 1
a 178 177 1
a 178 193 6
a 193 178 6
a 178 179 9
a 179 178 9
a 179 194 7
a 194 179 7
a 179 180 1
a 180 179 1
a 180 195 3
a 195 180 3
a 181 196 1
a 196 181 1
a 181 182 7
a 182 181 7
a 182 197 5
a 197 182 5
a 182 183 7
a 183 182 7
a 183 198 6
a 198 183 6
a 183 184 8
a 184 183 8
a 184 199 6
a 199 184 6
a 184 185 4
a 185 184 4
a 185 200 8
a 200 185 8
a 185 186 10
a 186 185 10
a 186 201 9
a 201 186 9
a 186 187 5
a 187 186 5
a 187 202 6
a 202 187 6
a 187 188 1
a 188 187 1
a 188 203 8
a 203 188 8
a 188 189 3
a 189 188 3
a 189 204 10
a 204 189 10
a 189 190 3
a 190 189 3
a 190 205 1
a 205 190 1
a 190 191 5
a 191 190 5
a 191 206 10
a 206 191 10
a 191 192 4
a 192 191 4
a 192 207 5
a 207 192 5
a 192 193 9
a 193 192 9
a 193 208 6
a 208 193 6
a 193 194 3
a 194 193 3
a 194 209 7
a 209 194 7
a 194 195 8
a 195 194 8
a 195 210 6
a 210 195 6
a 196 211 10
a 211 196 10
a 196 197 5
a 197 196 5
a 197 212 7
a 212 197 7
a 197 198 9
a 198 197 9
a 198 213 1
a 213 198 1
a 198 199 7
a 199 198 7
a 199 214 4
a 214 199 4
a 199 200 4
a 200 199 4
a 200 215 1
a 215 200 1
a 200 201 9
a 201 200 9
a 201 216 7
a 216 201 7
a 201 202 5
a 202 201 5
a 202 217 6
a 217 202 6
a 202 203 5
a 203 202 5
a 203 218 9
a 218 203 9
a 203 204 4
a 204 203 4
a 204 219 9
a 219 204 9
a 204 205 5
a 205 204 5
a 205 220 8
a 220 205 8
a 205 206 9
a 206 205 9
a 206 221 1
a 221 206 1
a 206 207 6
a 207 206 6
a 207 222 6
a 222 207 6
a 207 208 9
a 208 207 9
a 208 223 4
a 223 208 4
a 208 209 7
a 209 208 7
a 209 224 10
a 224 209 10
a 209 210 10
a 210 209 10
a 210 225 7
a 225 210 7
a 211 212 6
a 212 211 6
a 212 213 5
a 213 212 5
a 213 214 6
a 214 213 6
a 214 215 6
a 215 214 6
a 215 216 9
a 216 215 9
a 216 217 9
a 217 216 9
a 217 218 4
a 218 217 4
a 218 219 9
a 219 218 9
a 219 220 8
a 220 219 8
a 220 221 1
a 221 220 1
a 221 222 4
a 222 221 4
a 222 223 2
a 223 222 2
a 223 224 5
a 224 223 5
a 224 225 7
a 225 224 7
